c Reduced graph for 4-FullIns_3_4 generated by Cyril Grelier
p edge 26 85
e 1 8
e 1 9
e 1 10
e 1 11
e 1 12
e 1 13
e 1 14
e 1 15
e 1 16
e 1 17
e 1 18
e 1 23
e 1 24
e 1 25
e 1 26
e 2 3
e 2 4
e 2 5
e 2 6
e 2 7
e 2 9
e 2 10
e 2 11
e 2 12
e 2 13
e 2 19
e 2 20
e 2 23
e 2 24
e 3 4
e 3 5
e 3 6
e 3 7
e 3 8
e 3 10
e 3 11
e 3 12
e 3 13
e 4 5
e 4 6
e 4 7
e 4 8
e 4 9
e 4 11
e 4 12
e 4 13
e 5 6
e 5 7
e 5 8
e 5 9
e 5 10
e 5 12
e 5 13
e 6 7
e 6 8
e 6 9
e 6 10
e 6 11
e 6 13
e 7 8
e 7 9
e 7 10
e 7 11
e 7 12
e 8 19
e 8 20
e 14 15
e 14 16
e 14 17
e 14 18
e 15 16
e 15 17
e 15 18
e 16 17
e 16 18
e 17 18
e 19 22
e 19 26
e 20 21
e 20 25
e 21 22
e 21 24
e 21 26
e 22 23
e 22 25
